p cnf 14 40
14 -12 -8 0
-14 -11 -10 0
-14 10 7 0
-14 10 4 0
14 -9 8 0
-14 8 7 0
14 7 -2 0
-13 -12 -10 0
13 11 10 0
-13 11 -4 0
-13 -11 3 0
13 9 -5 0
-13 9 1 0
13 7 2 0
13 -4 -3 0
-12 11 9 0
-12 10 4 0
-12 -10 -4 0
-12 8 -4 0
-12 -8 1 0
-12 6 5 0
-12 -4 2 0
-11 -10 3 0
-11 9 5 0
-11 8 -6 0
-11 -6 4 0
11 -5 -4 0
-11 5 -2 0
-10 -9 -1 0
-10 -7 5 0
-9 -8 -5 0
9 -7 3 0
-9 -5 4 0
9 5 -3 0
-7 -5 2 0
-7 -4 -2 0
-7 -4 -1 0
5 -4 -3 0
-5 -4 2 0
5 -3 2 0
